SAT/9549656_27.param
$ LBS instance with n = 27, seed = 9549656
letting cards be [6,26,17,31,18,33,21,24,41,46,42,0,7,3,43,27,15,51,32,10,40,20,8,36,16,50,1]
